291,406
368,507
482,342
624,424
655,419
597,322
801,406
769,392
829,383
1006,457
947,599
1069,688
874,672
515,919
782,719
755,634
765,490
709,583
540,600
512,575
760,-97
625,51
536,301
342,652
814,338
1108,189
822,212
245,89
